p cnf 94 168
1 13 0
-13 14 0
2 -13 15 0
-15 16 0
3 -15 17 0
-17 18 0
4 -17 19 0
-19 20 0
5 -19 21 0
-21 22 0
6 -21 23 0
-23 24 0
7 -23 25 0
-25 26 0
8 -25 27 0
-27 28 0
9 -27 29 0
-29 30 0
10 -29 0
2 14 0
-14 31 0
3 -14 16 0
-16 32 0
4 -16 18 0
-18 33 0
5 -18 20 0
-20 34 0
6 -20 22 0
-22 35 0
7 -22 24 0
-24 36 0
8 -24 26 0
-26 37 0
9 -26 28 0
-28 38 0
10 -28 30 0
-30 39 0
11 -30 0
3 31 0
4 -31 32 0
5 -32 33 0
6 -33 34 0
7 -34 35 0
8 -35 36 0
9 -36 37 0
10 -37 38 0
11 -38 39 0
12 -39 0
-1 40 0
-40 41 0
-2 -40 42 0
-42 43 0
-3 -42 44 0
-44 45 0
-4 -44 0
-2 41 0
-41 46 0
-3 -41 43 0
-43 47 0
-4 -43 45 0
-45 48 0
-5 -45 0
-3 46 0
-46 49 0
-4 -46 47 0
-47 50 0
-5 -47 48 0
-48 51 0
-6 -48 0
-4 49 0
-49 52 0
-5 -49 50 0
-50 53 0
-6 -50 51 0
-51 54 0
-7 -51 0
-5 52 0
-52 55 0
-6 -52 53 0
-53 56 0
-7 -53 54 0
-54 57 0
-8 -54 0
-6 55 0
-55 58 0
-7 -55 56 0
-56 59 0
-8 -56 57 0
-57 60 0
-9 -57 0
-7 58 0
-58 61 0
-8 -58 59 0
-59 62 0
-9 -59 60 0
-60 63 0
-10 -60 0
-8 61 0
-61 64 0
-9 -61 62 0
-62 65 0
-10 -62 63 0
-63 66 0
-11 -63 0
-9 64 0
-10 -64 65 0
-11 -65 66 0
-12 -66 0
1 2 3 4 5 6 0
1 2 3 10 11 12 0
1 2 7 8 9 10 0
1 6 7 12 0
1 5 6 9 10 11 0
1 4 5 8 9 12 0
4 7 11 0
3 4 9 10 0
3 6 8 9 11 12 0
3 5 6 7 8 10 0
2 3 5 7 9 12 0
2 5 8 11 0
2 4 6 8 10 12 0
2 4 6 7 9 11 0
1 67 0
-67 68 0
3 -67 69 0
-69 70 0
5 -69 71 0
-71 72 0
8 -71 73 0
-73 74 0
10 -73 0
3 68 0
5 -68 70 0
8 -70 72 0
10 -72 74 0
12 -74 0
1 75 0
-75 76 0
2 -75 77 0
-77 78 0
3 -77 79 0
-79 80 0
4 -79 81 0
-81 82 0
5 -81 83 0
-83 84 0
6 -83 85 0
-85 86 0
7 -85 87 0
-87 88 0
8 -87 89 0
-89 90 0
9 -89 91 0
-91 92 0
10 -91 93 0
-93 94 0
11 -93 0
2 76 0
3 -76 78 0
4 -78 80 0
5 -80 82 0
6 -82 84 0
7 -84 86 0
8 -86 88 0
9 -88 90 0
10 -90 92 0
11 -92 94 0
12 -94 0
